HEIGHT = 7;
WIDTH = 27;
AGENTS = 6;

path = array2d(1..AGENTS, Marker,
  [|(y:  1, x: 1, d: ">"), (y:  5, x: 27, d: ">")
   |(y:  2, x: 1, d: ">"), (y:  7, x: 27, d: ">")
   |(y:  3, x: 1, d: ">"), (y:  6, x: 27, d: ">")
   |(y:  5, x: 1, d: ">"), (y:  1, x: 27, d: ">")
   |(y:  6, x: 1, d: ">"), (y:  3, x: 27, d: ">")
   |(y:  7, x: 1, d: ">"), (y:  2, x: 27, d: ">")|]);

walls =
  [|0,0,0,0,0,0,0,0,0,0,0,0,0,0,0,0,0,0,0,0,0,0,0,0,0,0,0
   |0,0,0,0,0,0,0,0,0,0,0,0,0,0,0,0,0,0,0,0,0,0,0,0,0,0,0
   |0,0,0,0,0,0,0,1,1,1,1,1,1,1,1,1,1,1,1,0,0,0,0,0,0,0,0
   |0,0,0,0,0,0,0,1,1,1,1,1,1,1,1,1,1,1,1,0,0,0,0,0,0,0,0
   |0,0,0,0,0,0,0,1,1,1,1,1,1,1,1,1,1,1,1,0,0,0,0,0,0,0,0
   |0,0,0,0,0,0,0,0,0,0,0,0,0,0,0,0,0,0,0,0,0,0,0,0,0,0,0
   |0,0,0,0,0,0,0,0,0,0,0,0,0,0,0,0,0,0,0,0,0,0,0,0,0,0,0|];
